Ba Ti O  H                              
   1.00000000000000     
     3.9983585595037803   -0.0000000000000000   -0.0000000000000000
     0.0000000000000000    4.0579185124464576    0.0000000000000000
     0.0000000000000000   -0.0000000000000000    4.0579185124464576
   Ba   Ti   O    H 
     1     1     2     1
Direct
 -0.0000000000000000  0.0000000000000000 -0.0000000000000000
  0.5000000000000000  0.5000000000000000  0.5000000000000000
  0.5000000000000000 -0.0000000000000000  0.5000000000000000
  0.5000000000000000  0.5000000000000000  0.0000000000000000
 -0.0000000000000000  0.5000000000000000  0.5000000000000000
 
  0.00000000E+00  0.00000000E+00  0.00000000E+00
  0.00000000E+00  0.00000000E+00  0.00000000E+00
  0.00000000E+00  0.00000000E+00  0.00000000E+00
  0.00000000E+00  0.00000000E+00  0.00000000E+00
  0.00000000E+00  0.00000000E+00  0.00000000E+00
