Ba Ti O  H                              
   1.00000000000000     
     3.9982994667299581    0.0000000000000000    0.0000045397285856
     0.0000000000000000    4.0579228650536425    0.0000000000000000
    -0.0000030731002109    0.0000000000000000    4.0578866270342528
   Ba   Ti   O    H 
     1     1     2     1
Direct
  0.0019959976859361  0.0000000000000000  0.0039949010528450
  0.5019996508691370  0.5000000000000000  0.5039989741964512
  0.5020027078514414  0.0000000000000000  0.5040041163385369
  0.5020028184363486  0.5000000000000000  0.0040046997914968
  0.0019988151571323  0.5000000000000000  0.5039972896206752
 
  0.00000000E+00  0.00000000E+00  0.00000000E+00
  0.00000000E+00  0.00000000E+00  0.00000000E+00
  0.00000000E+00  0.00000000E+00  0.00000000E+00
  0.00000000E+00  0.00000000E+00  0.00000000E+00
  0.00000000E+00  0.00000000E+00  0.00000000E+00
