INCAR created by Atomic Simulation Environment
 ENCUT = 500.000000
 EDIFF = 1.00e-05
 EDIFFG = -1.00e-03
 GGA = PE
 PREC = Single
 IBRION = 1
 ISIF = 3
 NSW = 300
 LWAVE = .FALSE.
