Ba1 Ti1 O3
1.0
        4.04         0.0000000000         0.0000000000
        0.0000000000         4.04         0.0000000000
        0.0000000000         0.0000000000         4.04
   Ba   Ti    O    H
    1    1    2    1
Direct
     0.000000000         0.000000000         0.000000000
     0.500000000         0.500000000         0.500000000
     0.500000000         0.000000000         0.500000000
     0.500000000         0.500000000         0.000000000
     0.000000000         0.500000000         0.500000000
