INCAR created by Atomic Simulation Environment
 ENCUT = 500.000000
 EDIFF = 1.00e-07
 GGA = PE
 PREC = Normal
 IBRION = -1
 LWAVE = .TRUE.
