Ba Ti O  H 
 1.0000000000000000
     3.9983585595037803   -0.0000000000000000   -0.0000000000000000
     0.0000000000000000    4.0579185124464576    0.0000000000000000
     0.0000000000000000   -0.0000000000000000    4.0579185124464576
 Ba  Ti  O   H  
   1   1   2   1
Cartesian
  0.0000000000000000  0.0000000000000000  0.0000000000000000
  1.9991792797518901  2.0289592562232288  2.0289592562232288
  1.9991792797518901  0.0000000000000000  2.0289592562232288
  1.9991792797518901  2.0289592562232288  0.0000000000000000
  0.0000000000000000  2.0289592562232288  2.0289592562232288
