Si
 1.0000000000000000
     0.0000000000000000    2.7149999999999999    2.7149999999999999
     2.7149999999999999    0.0000000000000000    2.7149999999999999
     2.7149999999999999    2.7149999999999999    0.0000000000000000
 Si 
   1
Cartesian
  0.0000000000000000  0.0000000000000000  0.0000000000000000
