Si
 1.0000000000000000
     5.4299999999999997    0.0000000000000000    0.0000000000000000
     0.0000000000000000    5.4299999999999997    0.0000000000000000
     0.0000000000000000    0.0000000000000000    5.4299999999999997
 Si 
   4
Cartesian
  0.0000000000000000  0.0000000000000000  0.0000000000000000
  0.0000000000000000  2.7149999999999999  2.7149999999999999
  2.7149999999999999  0.0000000000000000  2.7149999999999999
  2.7149999999999999  2.7149999999999999  0.0000000000000000
